Mn2 F4
1.0
   4.8735999999999988    0.0000000000000000    0.0000000000000000
   0.0000000000000000    4.8735999999999988    0.0000000000000000
   0.0000000000000000    0.0000000000000000    3.2999999999999989
Mn F
2 4
direct
   0.0000000000000000    0.0000000000000000    0.0000000000000000 Mn
   0.5000000000000000    0.5000000000000000    0.5000000000000000 Mn
   0.3046400000000002    0.3046400000000002    0.0000000000000000 F
   0.8046400000000002    0.1953599999999998    0.5000000000000000 F
   0.1953599999999998    0.8046400000000002    0.5000000000000000 F
   0.6953599999999998    0.6953599999999998    0.0000000000000000 F
